p cnf 1041 1215
c ind 772 773 774 787 794 820 881 882 895 902 0
c ind 906 908 911 927 929 932 944 945 964 966 0
c ind 970 981 982 986 987 988 992 994 1026 1008 0
c ind 1017 1031 1012 1022 1039 765 880 1025 795 1007 0
c ind 1016 1030 1011 1021 807 1038 766 767 879 770 0
c ind 771 878 976 977 975 974 973 995 1024 1006 0
c ind 1015 1029 1010 1020 1037 985 1023 1005 1014 1028 0
c ind 1009 1019 1036 983 984 1000 1004 1034 972 971 0
c ind 993 980 969 991 989 990 978 979 968 967 0
c ind 960 1002 1032 1001 1003 1033 1013 1027 1018 1035 0
c ind 768 769 997 965 963 961 962 959 952 951 0
c ind 958 998 957 956 955 954 953 950 949 999 0
c ind 948 947 946 764 939 938 936 937 935 934 0
c ind 996 940 941 933 931 942 930 943 928 926 0
c ind 924 925 923 922 921 920 919 918 917 915 0
c ind 916 914 913 912 910 909 907 905 903 904 0
c ind 885 901 896 900 897 898 892 899 894 890 0
c ind 891 893 889 884 888 886 887 883 877 870 0
c ind 862 876 875 874 873 856 855 854 872 853 0
c ind 871 852 851 850 869 868 867 866 865 777 0
c ind 864 863 861 860 859 858 857 849 842 834 0
c ind 848 847 846 845 828 827 826 844 825 843 0
c ind 824 823 822 841 840 839 838 837 836 835 0
c ind 833 832 831 830 829 821 819 817 818 808 0
c ind 809 816 815 814 813 812 810 811 804 803 0
c ind 805 806 802 801 800 799 797 798 796 793 0
c ind 792 788 789 790 791 784 786 783 782 785 0
c ind 776 781 775 780 778 779 1 0
c ret 590 591 592 593 594 595 596 597 598 599 0
c ret 600 601 602 603 604 605 606 607 608 609 0
c ret 610 611 612 613 614 615 616 617 618 619 0
c ret 620 621 622 623 624 625 626 627 628 629 0
c ret 630 631 632 633 634 635 636 637 638 639 0
c ret 640 641 642 643 644 645 646 647 648 649 0
c ret 650 651 652 653 654 655 656 657 658 659 0
c ret 660 661 662 663 664 665 666 667 668 669 0
c ret 670 671 672 673 674 675 676 677 678 679 0
c ret 680 681 682 683 684 685 686 687 688 689 0
c ret 690 691 692 693 694 695 696 697 698 699 0
c ret 700 701 702 703 704 705 706 707 708 709 0
c ret 710 711 712 713 714 715 716 717 718 719 0
c ret 720 721 722 723 724 725 726 727 728 285 0
c ret 291 292 293 294 295 296 297 298 299 300 0
c ret 301 302 303 304 305 729 306 730 307 308 0
c ret 731 309 732 310 311 312 313 314 315 316 0
c ret 317 318 319 320 321 322 733 734 323 324 0
c ret 325 735 326 327 736 286 328 329 330 331 0
c ret 332 333 334 335 737 336 337 338 339 340 0
c ret 738 341 739 342 740 343 741 344 345 346 0
c ret 347 348 349 350 351 352 353 354 355 742 0
c ret 356 357 358 359 360 361 743 744 362 363 0
c ret 745 364 746 365 366 367 368 287 369 370 0
c ret 371 372 373 374 375 376 377 378 379 380 0
c ret 381 747 382 748 383 749 384 385 750 386 0
c ret 387 388 389 390 391 392 393 394 395 396 0
c ret 751 397 398 399 752 400 753 401 754 755 0
c ret 402 403 404 405 406 407 408 288 409 410 0
c ret 411 412 413 414 756 757 415 416 417 418 0
c ret 419 758 420 421 422 423 424 425 426 427 0
c ret 428 759 429 430 431 432 433 760 761 434 0
c ret 435 762 436 437 763 438 439 440 441 442 0
c ret 443 444 445 446 447 448 449 450 451 452 0
c ret 453 454 455 456 457 458 459 460 461 462 0
c ret 463 464 465 466 467 468 469 470 471 472 0
c ret 473 474 475 476 477 478 479 289 480 481 0
c ret 482 483 484 485 486 487 488 489 490 491 0
c ret 492 493 494 495 496 497 498 499 500 501 0
c ret 502 503 504 505 506 507 508 509 510 511 0
c ret 512 513 514 515 516 517 518 290 519 520 0
c ret 521 522 523 524 525 526 527 528 529 530 0
c ret 531 532 533 534 535 536 537 538 539 540 0
c ret 541 542 543 544 545 546 547 548 549 550 0
c ret 551 552 553 554 555 556 557 558 559 560 0
c ret 561 562 563 564 565 566 567 568 569 570 0
c ret 571 572 573 574 575 576 577 578 579 580 0
c ret 581 582 583 584 585 586 587 588 589 0
2 196 -278 0
2 3 -278 0
2 237 -278 0
-2 278 0
-2 -3 -196 -237 0
3 4 -102 114 -125 0
3 4 102 -114 -125 0
-3 125 0
-3 -102 -114 0
-3 -4 0
-3 102 114 0
4 -5 -48 0
4 5 48 0
-4 5 -48 0
-4 -5 48 0
5 6 44 960 0
5 -38 44 -960 0
-5 -44 0
-5 -6 960 0
-5 38 -960 0
6 7 30 37 0
6 7 30 -33 0
-6 -7 0
-6 -30 0
-6 33 -37 0
7 -28 764 -939 0
7 8 764 939 0
-7 -764 0
-7 28 -939 0
-7 -8 939 0
8 -9 -768 0
-8 768 0
-8 9 0
9 -10 24 0
-9 10 0
-9 -24 0
10 -17 18 0
10 11 18 -829 0
-10 -18 0
-10 -11 17 0
-10 17 829 0
11 12 0
11 15 -828 0
11 15 834 0
-11 -12 -15 0
-11 -12 828 -834 0
12 -13 14 -822 -829 0
-12 13 0
-12 -14 0
-12 822 0
-12 829 0
13 823 824 825 0
-13 -823 0
-13 -825 0
-13 -824 0
14 826 -827 0
-14 -826 0
-14 827 0
15 16 828 834 -835 0
-15 -828 0
-15 -16 0
-15 835 0
-15 -834 0
16 842 843 0
-16 -842 0
-16 -843 0
13 17 -822 0
14 17 -822 -828 0
-17 822 0
-13 -17 828 0
-13 -14 -17 0
18 20 23 0
18 20 -22 0
18 19 20 0
-18 -20 0
-18 -19 22 -23 0
19 851 852 853 0
-19 -851 0
-19 -853 0
-19 -852 0
19 20 -850 0
20 21 -850 -856 0
-20 850 0
-19 -20 856 0
-19 -20 -21 0
21 854 -855 0
-21 -854 0
-21 855 0
22 862 863 0
22 862 870 871 0
-22 -862 0
-22 -863 -870 0
-22 -863 -871 0
21 23 -850 856 -857 0
-23 857 0
-21 -23 0
-23 850 0
-23 -856 0
24 -25 -796 0
24 -27 -796 0
24 -26 -796 0
-24 796 0
-24 25 26 27 0
25 -797 798 799 0
-25 797 0
-25 -799 0
-25 -798 0
26 802 805 806 0
-26 -802 0
-26 -806 0
-26 -805 0
27 -802 803 804 0
-27 802 0
-27 -804 0
-27 -803 0
28 -29 1023 0
8 28 29 0
-28 -29 -1023 0
-8 -28 29 0
29 905 -907 0
-29 -905 0
-29 907 0
30 -31 -32 -949 0
30 -31 -32 -950 0
-30 32 0
-30 31 0
-30 949 950 0
31 952 953 954 955 0
-31 -955 0
-31 -954 0
-31 -952 0
-31 -953 0
32 -946 -947 -948 951 0
-32 948 0
-32 -951 0
-32 946 0
-32 947 0
28 33 -34 0
-28 -33 0
-33 34 0
34 35 36 0
-34 -35 0
-34 -36 0
35 918 919 920 0
-35 -918 0
-35 -920 0
-35 -919 0
36 926 -928 0
-36 -926 0
-36 928 0
36 37 -764 0
37 -764 1024 0
-37 764 0
-36 -37 -1024 0
38 39 41 0
38 42 1026 0
38 39 42 0
38 41 1026 0
-38 -39 -1026 0
-38 -41 -42 0
39 -40 967 0
-39 -967 0
-39 40 0
40 991 -993 0
-40 -991 0
-40 993 0
41 -967 -969 0
40 41 967 0
41 -967 968 0
-40 -41 967 0
-41 -967 -968 969 0
42 -43 -1025 0
-6 42 43 0
-42 -43 1025 0
6 -42 43 0
43 963 -965 0
-43 -963 0
-43 965 0
-42 44 -45 0
42 -44 0
-44 45 0
45 46 -47 0
-45 -46 0
-45 47 0
46 971 -972 -973 974 0
-46 -971 0
-46 -974 0
-46 973 0
-46 972 0
47 -960 -967 -968 969 0
-47 968 0
-47 -969 0
-47 960 0
-47 967 0
48 49 -91 99 0
48 49 -91 101 0
-48 -49 0
-48 91 0
-48 -99 -101 0
49 -53 57 0
49 50 51 57 0
-49 -57 0
-49 -51 53 0
-49 -50 53 0
50 484 -486 0
-50 -484 0
-50 486 0
51 -52 488 -750 0
-51 52 0
-51 750 0
-51 -488 0
52 512 -514 0
-52 -512 0
-52 514 0
50 53 481 0
53 481 749 0
53 54 481 0
-53 -481 0
-50 -53 -54 -749 0
54 55 -56 -481 -488 0
-54 56 0
-54 481 0
-54 488 0
-54 -55 0
55 492 -493 -494 495 0
-55 -492 0
-55 -495 0
-55 494 0
-55 493 0
56 -489 490 0
-56 489 0
-56 -490 0
57 58 83 90 0
57 58 83 -86 0
-57 -58 0
-57 -83 0
-57 86 -90 0
58 -81 285 -460 0
58 59 285 460 0
-58 -285 0
-58 81 -460 0
-58 -59 460 0
59 -60 -289 0
-59 289 0
-59 60 0
60 61 -65 0
-60 -61 0
-60 65 0
61 -62 -317 0
61 -64 -317 0
61 -63 -317 0
-61 317 0
-61 62 63 64 0
62 -318 319 320 0
-62 318 0
-62 -320 0
-62 -319 0
63 323 326 327 0
-63 -323 0
-63 -327 0
-63 -326 0
64 -323 324 325 0
-64 323 0
-64 -325 0
-64 -324 0
65 66 -73 0
65 66 76 -350 0
-65 -66 0
-65 73 -76 0
-65 73 350 0
66 -67 70 0
66 70 371 0
-66 -70 0
-66 67 -371 0
67 -69 374 377 0
67 -68 -69 374 0
-67 -374 0
-67 69 0
-67 68 -377 0
68 375 -376 0
-68 -375 0
-68 376 0
69 372 373 0
-69 -372 0
-69 -373 0
68 -69 70 71 -72 0
69 -70 0
-70 -71 0
-68 -70 0
-70 72 0
71 383 384 0
71 383 391 392 0
-71 -383 0
-71 -384 -391 0
-71 -384 -392 0
72 -371 374 377 -378 0
-72 378 0
-72 -377 0
-72 371 0
-72 -374 0
73 74 -343 0
73 75 -343 -349 0
-73 343 0
-73 -74 349 0
-73 -74 -75 0
74 344 345 346 0
-74 -344 0
-74 -346 0
-74 -345 0
75 347 -348 0
-75 -347 0
-75 348 0
76 77 79 0
-76 -77 0
-76 -79 0
77 -78 349 -355 0
-77 78 0
-77 355 0
-77 -349 0
-74 75 78 -343 -350 0
74 -78 0
-75 -78 0
-78 343 0
-78 350 0
-78 79 -80 -363 0
-78 79 -80 -364 0
-79 80 0
78 -79 0
-79 363 364 0
80 349 355 -356 0
-80 356 0
-80 -355 0
-80 -349 0
81 -82 747 0
59 81 82 0
-81 -82 -747 0
-59 -81 82 0
82 426 -428 0
-82 -426 0
-82 428 0
83 -84 -85 -470 0
83 -84 -85 -471 0
-83 85 0
-83 84 0
-83 470 471 0
84 473 474 475 476 0
-84 -476 0
-84 -475 0
-84 -473 0
-84 -474 0
85 -467 -468 -469 472 0
-85 469 0
-85 -472 0
-85 467 0
-85 468 0
81 86 -87 0
-81 -86 0
-86 87 0
87 88 89 0
-87 -88 0
-87 -89 0
88 439 440 441 0
-88 -439 0
-88 -441 0
-88 -440 0
89 447 -449 0
-89 -447 0
-89 449 0
89 90 -285 0
90 -285 748 0
-90 285 0
-89 -90 -748 0
91 93 -97 0
91 92 96 -97 0
-91 97 0
-91 -93 -96 0
-91 -92 -93 0
92 517 0
92 -518 -524 0
92 518 -525 0
-92 -517 518 525 0
-92 -517 -518 524 0
93 -94 95 0
-93 94 0
-93 -95 0
94 517 0
94 -518 524 0
94 518 525 0
-94 -517 518 -525 0
-94 -517 -518 -524 0
92 95 -526 532 0
92 95 526 533 0
-92 -95 0
-95 526 -533 0
-95 -526 -532 0
-92 96 0
96 -526 532 0
96 526 533 0
92 -96 -526 -532 0
92 -96 526 -533 0
97 -98 -546 -662 -691 0
-97 98 0
-97 546 0
-97 691 0
-97 662 0
98 -575 -604 -633 0
-98 575 0
-98 604 0
-98 633 0
-50 99 -481 0
99 -100 -481 0
-99 481 0
50 -99 100 0
-52 54 100 488 0
54 -56 100 -488 0
-54 -100 0
56 -100 -488 0
52 -100 488 0
51 -100 101 0
51 101 749 0
-51 -101 0
100 -101 -749 0
-91 102 -103 0
-91 102 -112 0
-91 102 -110 0
91 -102 0
-102 103 110 112 0
103 106 -107 0
-87 103 104 -107 0
-103 107 0
-103 -104 -106 0
87 -103 -106 0
-82 104 752 0
82 104 105 0
-82 -104 -752 0
82 -104 -105 0
-60 105 -751 0
-105 751 0
60 -105 0
89 106 -285 0
106 -285 753 0
-106 285 0
-89 -106 -753 0
107 -108 109 0
-107 108 0
-107 -109 0
83 99 108 0
-83 -108 0
-99 -108 0
-104 109 285 -460 0
105 109 285 460 0
-109 -285 0
104 -109 -460 0
-105 -109 460 0
-52 110 -111 -755 0
-110 755 0
52 -110 0
-110 111 0
111 -481 488 0
-111 481 0
-111 -488 0
-50 112 -113 -754 0
-112 754 0
50 -112 0
-112 113 0
100 113 -481 0
-113 481 0
-100 -113 0
114 -115 -123 0
114 -123 960 0
-114 123 0
-114 115 -960 0
39 115 -116 0
-39 115 1031 0
39 115 117 0
-39 -115 -1031 0
39 -115 116 -117 0
116 -967 -968 969 0
-116 967 0
-116 968 0
-116 -969 0
-43 117 -1030 0
30 43 117 -118 0
43 -117 118 0
-43 -117 1030 0
-30 43 -117 0
118 121 122 0
-34 118 119 121 0
-118 -121 0
34 -118 -122 0
-118 -119 -122 0
-29 119 1028 0
29 119 120 0
-29 -119 -1028 0
29 -119 -120 0
-9 120 -1027 0
-120 1027 0
9 -120 0
-119 121 764 -939 0
120 121 764 939 0
-121 -764 0
119 -121 -939 0
-120 -121 939 0
36 122 -764 0
122 -764 1029 0
-122 764 0
-36 -122 -1029 0
117 118 123 0
45 123 124 0
117 123 124 0
45 118 123 0
-45 -117 -123 0
-118 -123 -124 0
30 124 960 0
-124 -960 0
-30 -124 0
125 126 -138 -148 -180 0
125 -126 138 -148 -180 0
-125 180 0
-125 126 138 0
-125 148 0
-125 -126 -138 0
126 132 135 -960 0
126 127 132 135 0
-126 -135 0
-126 -132 0
-126 -127 960 0
30 127 128 131 0
30 127 128 -130 0
-30 -127 0
-127 -128 0
-127 130 -131 0
128 -129 764 -939 0
9 128 764 939 0
-128 -764 0
-128 129 -939 0
-9 -128 939 0
-29 129 1009 0
9 29 129 0
-29 -129 -1009 0
-9 29 -129 0
-34 129 130 0
34 -130 0
-129 -130 0
36 131 -764 0
131 -764 1010 0
-131 764 0
-36 -131 -1010 0
-40 132 -134 -1012 0
40 132 -133 -134 0
-132 134 0
-40 -132 1012 0
40 -132 133 0
-43 133 -1011 0
43 -127 133 0
-43 -133 1011 0
43 127 -133 0
134 -960 967 0
-134 960 0
-134 -967 0
-133 135 -136 0
133 -135 0
-135 136 0
46 136 -960 -967 0
136 137 -960 -967 0
-136 960 0
-136 967 0
-46 -136 -137 0
137 -968 969 0
-137 968 0
-137 -969 0
-91 138 -139 0
-91 138 146 0
91 -138 0
-138 139 -146 0
52 -111 139 -140 0
-52 -111 139 -736 0
111 -139 0
52 -139 140 0
-52 -139 736 0
-50 140 -735 0
50 140 -141 0
-50 -140 735 0
50 -140 141 0
83 141 142 145 0
83 141 142 -144 0
-83 -141 0
-141 -142 0
-141 144 -145 0
142 -143 285 -460 0
60 142 285 460 0
-142 -285 0
-142 143 -460 0
-60 -142 460 0
-82 143 733 0
60 82 143 0
-82 -143 -733 0
-60 82 -143 0
-87 143 144 0
87 -144 0
-143 -144 0
89 145 -285 0
145 -285 734 0
-145 285 0
-89 -145 -734 0
146 147 -481 0
140 141 146 0
141 146 147 0
140 146 -481 0
-141 -146 481 0
-140 -146 -147 0
56 147 -481 -488 0
55 147 -481 -488 0
-147 481 0
-147 488 0
-55 -56 -147 0
148 149 162 171 -176 0
148 -149 -162 171 -176 0
-148 -171 0
-148 149 -162 0
-148 176 0
-148 -149 162 0
149 -153 285 0
88 149 -150 -153 0
-149 153 0
-149 150 -285 0
-88 -149 -285 0
150 404 -758 0
150 -151 -404 0
-150 151 -404 0
-150 404 758 0
-65 151 -720 0
61 -65 151 152 0
65 -151 0
-151 -152 720 0
-61 -151 720 0
152 296 757 0
-152 -296 0
-152 -757 0
153 -154 159 0
-153 154 0
-153 -159 0
-98 154 -155 0
98 -154 0
-154 155 0
93 155 -156 0
96 155 -156 -517 0
-155 156 0
-93 -96 -155 0
-93 -155 517 0
156 -157 -546 -662 -691 0
-156 157 0
-156 546 0
-156 691 0
-156 662 0
83 157 158 0
83 157 481 0
55 83 157 0
-83 -157 0
-55 -157 -158 -481 0
-56 158 -488 0
-158 488 0
56 -158 0
150 159 160 0
150 151 159 0
151 159 -160 285 0
-150 -159 160 0
-151 -159 -160 0
-150 -159 -285 0
160 -161 460 461 464 0
-160 161 0
-160 -464 0
-160 -460 0
-160 -461 0
161 462 463 0
-161 -462 0
-161 -463 0
162 163 -169 -170 0
162 163 -169 764 0
-162 169 0
-162 -163 0
-162 170 -764 0
163 164 168 0
163 166 168 0
163 -164 166 764 0
-163 -164 -166 0
-163 164 -168 0
-163 -168 -764 0
164 -165 939 940 943 0
-164 165 0
-164 -943 0
-164 -939 0
-164 -940 0
165 941 942 0
-165 -941 0
-165 -942 0
-10 166 -996 0
-10 24 166 167 0
10 -166 0
-166 -167 996 0
-24 -166 996 0
167 775 1033 0
-167 -775 0
-167 -1033 0
168 883 -1034 0
-166 168 -883 0
166 -168 -883 0
-168 883 1034 0
30 47 169 0
30 46 169 0
-30 -169 0
-46 -47 -169 0
35 -168 170 0
-35 -170 0
168 -170 0
171 172 -173 0
171 -172 173 0
-171 -172 -173 0
-171 172 173 0
-10 172 -996 998 0
-172 996 0
-172 -998 0
10 -172 0
-65 -155 173 174 -175 0
-173 175 0
65 -173 0
155 -173 0
-173 -174 0
-88 174 -285 0
-174 285 0
88 -174 0
-98 175 -720 722 0
-175 720 0
-175 -722 0
98 -175 0
24 -169 176 -177 -179 0
-24 -176 0
-176 179 0
-176 177 0
169 -176 0
35 177 -178 0
177 -178 764 0
-177 178 0
-35 -177 -764 0
178 -767 -768 0
178 -766 769 0
178 -766 -768 0
178 -767 769 0
-178 768 -769 0
-178 766 767 0
-17 18 179 0
11 18 179 0
-18 -179 0
-11 17 -179 0
180 -181 -188 0
180 181 188 0
-180 181 -188 0
-180 -181 188 0
-169 181 182 0
169 -181 0
-181 -182 0
164 182 -183 0
182 186 187 0
182 -183 186 0
-182 183 -187 0
-164 -182 -186 0
-182 183 -186 0
183 184 -883 0
-172 183 883 1004 0
-183 883 -1004 0
-183 -184 -883 0
172 -183 883 0
-10 184 -185 0
10 -184 0
-184 185 0
185 -996 -998 0
24 185 996 0
185 -996 -1002 0
-24 -185 996 0
-185 -996 998 1002 0
164 186 764 0
-184 186 764 0
-186 -764 0
-164 184 -186 0
35 187 -764 0
-187 764 0
-35 -187 0
-154 188 189 0
154 -188 0
-188 -189 0
160 189 -190 0
189 194 195 0
189 -190 194 0
-189 190 -195 0
-160 -189 -194 0
-189 190 -194 0
190 191 -404 0
-65 190 -193 404 0
-190 -191 -404 0
65 -190 404 0
-190 193 404 0
-65 191 -192 0
65 -191 0
-191 192 0
192 -720 -722 0
61 192 720 0
192 -720 -726 0
-61 -192 720 0
-192 -720 722 726 0
193 -720 722 728 0
-193 720 0
-193 -728 0
-193 -722 0
160 194 285 0
-191 194 285 0
-194 -285 0
-160 191 -194 0
88 195 -285 0
-195 285 0
-88 -195 0
196 197 -207 -227 0
196 -197 207 -217 0
196 197 -207 -217 0
196 -197 207 -227 0
-196 -197 -207 0
-196 197 207 0
-196 217 227 0
-91 197 -198 0
-91 197 206 0
91 -197 0
-197 198 -206 0
52 -111 198 -199 0
-52 -111 198 -741 0
111 -198 0
52 -198 199 0
-52 -198 741 0
-50 199 -740 0
50 199 -200 0
-50 -199 740 0
50 -199 200 0
83 200 201 205 0
83 200 201 -204 0
-83 -200 0
-200 -201 0
-200 204 -205 0
201 -203 285 -460 0
201 202 285 460 0
-201 -285 0
-201 203 -460 0
-201 -202 460 0
-60 202 -737 0
-202 737 0
60 -202 0
-82 203 738 0
82 202 203 0
-82 -203 -738 0
82 -202 -203 0
-87 203 204 0
87 -204 0
-203 -204 0
89 205 -285 0
205 -285 739 0
-205 285 0
-89 -205 -739 0
199 206 -481 0
147 200 206 0
199 200 206 0
147 206 -481 0
-147 -199 -206 0
-200 -206 481 0
207 214 216 -960 0
207 208 214 216 0
-207 -216 0
-207 -214 0
-207 -208 960 0
30 208 209 213 0
30 208 209 -212 0
-30 -208 0
-208 -209 0
-208 212 -213 0
209 -211 764 -939 0
209 210 764 939 0
-209 -764 0
-209 211 -939 0
-209 -210 939 0
-9 210 -1013 0
-210 1013 0
9 -210 0
-29 211 1014 0
29 210 211 0
-29 -211 -1014 0
29 -210 -211 0
-34 211 212 0
34 -212 0
-211 -212 0
36 213 -764 0
213 -764 1015 0
-213 764 0
-36 -213 -1015 0
40 -134 214 -215 0
-40 -134 214 -1017 0
134 -214 0
40 -214 215 0
-40 -214 1017 0
-43 215 -1016 0
43 -208 215 0
-43 -215 1016 0
43 208 -215 0
-136 -215 216 0
136 -216 0
215 -216 0
217 224 226 -960 0
217 218 224 226 0
-217 -226 0
-217 -224 0
-217 -218 960 0
30 218 219 223 0
30 218 219 -222 0
-30 -218 0
-218 -219 0
-218 222 -223 0
219 -221 764 -939 0
219 220 764 939 0
-219 -764 0
-219 221 -939 0
-219 -220 939 0
-9 220 -1035 0
-220 1035 0
9 -220 0
-29 221 1036 0
29 220 221 0
-29 -221 -1036 0
29 -220 -221 0
-34 221 222 0
34 -222 0
-221 -222 0
36 223 -764 0
223 -764 1037 0
-223 764 0
-36 -223 -1037 0
40 -134 224 -225 0
-40 -134 224 -1039 0
134 -224 0
40 -224 225 0
-40 -224 1039 0
-43 225 -1038 0
43 -218 225 0
-43 -225 1038 0
43 218 -225 0
-136 -225 226 0
136 -226 0
225 -226 0
-91 227 -228 0
-91 227 236 0
91 -227 0
-227 228 -236 0
52 -111 228 -229 0
-52 -111 228 -763 0
111 -228 0
52 -228 229 0
-52 -228 763 0
-50 229 -762 0
50 229 -230 0
-50 -229 762 0
50 -229 230 0
83 230 231 235 0
83 230 231 -234 0
-83 -230 0
-230 -231 0
-230 234 -235 0
231 -233 285 -460 0
231 232 285 460 0
-231 -285 0
-231 233 -460 0
-231 -232 460 0
-60 232 -759 0
-232 759 0
60 -232 0
-82 233 760 0
82 232 233 0
-82 -233 -760 0
82 -232 -233 0
-87 233 234 0
87 -234 0
-233 -234 0
89 235 -285 0
235 -285 761 0
-235 285 0
-89 -235 -761 0
229 236 -481 0
147 230 236 0
229 230 236 0
147 236 -481 0
-147 -229 -236 0
-230 -236 481 0
237 238 259 -268 277 0
237 238 -259 268 277 0
-237 -277 0
-237 -259 -268 0
-237 -238 0
-237 259 268 0
238 -239 -249 0
238 239 249 0
-238 239 -249 0
-238 -239 249 0
-91 239 -240 0
-91 239 248 0
91 -239 0
-239 240 -248 0
52 -111 240 -241 0
-52 -111 240 -732 0
111 -240 0
52 -240 241 0
-52 -240 732 0
-50 241 -731 0
50 241 -242 0
-50 -241 731 0
50 -241 242 0
83 242 243 247 0
83 242 243 -246 0
-83 -242 0
-242 -243 0
-242 246 -247 0
243 244 -285 730 0
89 243 244 -285 0
-243 285 0
-243 -244 0
-89 -243 -730 0
-87 244 245 0
87 -244 0
-244 -245 0
60 82 245 0
-82 245 729 0
82 245 290 0
-82 -245 -729 0
-60 82 -245 -290 0
-60 82 246 -290 0
-60 246 -290 460 0
60 -246 0
-246 290 0
-82 -246 -460 0
247 285 729 0
247 285 460 0
82 247 285 0
-247 -285 0
-82 -247 -460 -729 0
241 248 -481 0
147 242 248 0
241 242 248 0
147 248 -481 0
-147 -241 -248 0
-242 -248 481 0
249 256 258 -960 0
249 250 256 258 0
-249 -258 0
-249 -256 0
-249 -250 960 0
30 250 251 255 0
30 250 251 -254 0
-30 -250 0
-250 -251 0
-250 254 -255 0
251 252 -764 1006 0
36 251 252 -764 0
-251 764 0
-251 -252 0
-36 -251 -1006 0
-34 252 253 0
34 -252 0
-252 -253 0
9 29 253 0
-29 253 1005 0
29 253 769 0
-29 -253 -1005 0
-9 29 -253 -769 0
-9 29 254 -769 0
-9 254 -769 939 0
9 -254 0
-254 769 0
-29 -254 -939 0
255 764 1005 0
255 764 939 0
29 255 764 0
-255 -764 0
-29 -255 -939 -1005 0
40 -134 256 -257 0
-40 -134 256 -1008 0
134 -256 0
40 -256 257 0
-40 -256 1008 0
-43 257 -1007 0
43 -250 257 0
-43 -257 1007 0
43 250 -257 0
-136 -257 258 0
136 -258 0
257 -258 0
259 -260 -267 0
259 -267 960 0
-259 267 0
-259 260 -960 0
39 -116 260 0
-39 260 1022 0
39 260 261 0
-39 -260 -1022 0
39 116 -260 -261 0
-43 261 -1021 0
30 43 261 -262 0
43 -261 262 0
-43 -261 1021 0
-30 43 -261 0
262 265 266 0
-34 262 263 266 0
-262 -266 0
-262 -263 -265 0
34 -262 -265 0
-29 263 1019 0
29 263 264 0
-29 -263 -1019 0
29 -263 -264 0
-9 264 -1018 0
-264 1018 0
9 -264 0
36 265 -764 0
265 -764 1020 0
-265 764 0
-36 -265 -1020 0
-263 266 764 -939 0
264 266 764 939 0
-266 -764 0
263 -266 -939 0
-264 -266 939 0
261 262 267 0
45 124 267 0
124 261 267 0
45 262 267 0
-124 -262 -267 0
-45 -261 -267 0
-97 268 275 -517 0
-97 268 -269 -517 0
-268 517 0
97 -268 0
-268 269 -275 0
269 272 -273 0
-87 269 270 -273 0
-269 273 0
-269 -270 -272 0
87 -269 -272 0
-82 270 743 0
82 270 271 0
-82 -270 -743 0
82 -270 -271 0
-60 271 -742 0
-271 742 0
60 -271 0
89 272 -285 0
272 -285 744 0
-272 285 0
-89 -272 -744 0
-108 273 274 0
108 -273 0
-273 -274 0
-270 274 285 -460 0
271 274 285 460 0
-274 -285 0
270 -274 -460 0
-271 -274 460 0
52 275 276 0
111 275 276 0
275 276 746 0
-275 -276 0
-52 -111 -275 -746 0
-50 -113 276 -745 0
-276 745 0
50 -276 0
113 -276 0
-217 -227 277 0
217 -277 0
227 -277 0
92 278 -279 284 0
94 278 -279 284 0
-278 279 0
-278 -284 0
-92 -94 -278 0
61 66 -157 279 -280 0
-61 -279 0
-279 280 0
157 -279 0
-66 -279 0
280 -281 -282 285 0
88 280 -281 -282 0
-280 282 0
-280 281 0
-88 -280 -285 0
281 -575 -604 -633 -691 0
-281 691 0
-281 575 0
-281 633 0
-281 604 0
282 -283 -289 0
282 -283 290 0
-282 283 0
-282 289 -290 0
283 -287 -546 -662 0
283 -288 -546 -662 0
-283 662 0
-283 546 0
-283 287 288 0
73 77 79 284 0
-73 -284 0
-79 -284 0
-77 -284 0
1 2 0
-1 -2 0
1040 0

